
Gurobi 6.0.4 (win64) logging started 06/14/15 17:08:32

Read LP format model from file C:\MT\repository\VRPTWMS\instances\mip\freight\N7-C_DV10-C_SV50_F16_8_No_1.lp
Reading time = 0.01 seconds
(null): 281 rows, 177 columns, 1137 nonzeros
Optimize a model with 281 rows, 177 columns and 1137 nonzeros
Model has 448 quadratic constraints
WARNING: Only barrier available for SOCP models
Coefficient statistics:
  Matrix range    [1e+00, 1e+02]
  Objective range [7e+00, 1e+03]
  Bounds range    [1e+00, 1e+02]
  RHS range       [1e+00, 1e+02]
Presolve removed 37 rows and 15 columns
Presolve time: 0.05s
Presolved: 1257 rows, 693 columns, 5749 nonzeros
Variable types: 482 continuous, 211 integer (165 binary)
Found heuristic solution: objective 7267.9200000
Optimize a model with 1257 rows, 693 columns and 5749 nonzeros
Coefficient statistics:
  Matrix range    [1e+00, 1e+02]
  Objective range [7e+00, 1e+03]
  Bounds range    [1e+00, 1e+02]
  RHS range       [1e+00, 1e+02]

Concurrent LP optimizer: dual simplex and barrier
Showing barrier log only...

Presolve removed 90 rows and 45 columns
Presolved: 1167 rows, 648 columns, 5344 nonzeros

Root barrier log...

Ordering time: 0.00s

Barrier performed 0 iterations in 0.06 seconds
Barrier solve interrupted - model solved by another algorithm


Solved with dual simplex
Solved in 130 iterations and 0.07 seconds
Optimal objective  1.346835159e+02

Root relaxation: objective 1.346835e+02, 130 iterations, 0.01 seconds

    Nodes    |    Current Node    |     Objective Bounds      |     Work
 Expl Unexpl |  Obj  Depth IntInf | Incumbent    BestBd   Gap | It/Node Time

     0     0  134.68352    0   59 7267.92000  134.68352  98.1%     -    0s
H    0     0                    5227.2800000  134.68352  97.4%     -    0s
     0     0  370.73059    0   71 5227.28000  370.73059  92.9%     -    0s
H    0     0                    5210.5800000  370.73059  92.9%     -    0s
     0     0  870.09718    0   71 5210.58000  870.09718  83.3%     -    0s
H    0     0                    4196.3700000  870.09718  79.3%     -    0s
     0     0  930.54024    0   69 4196.37000  930.54024  77.8%     -    0s
     0     0  931.12775    0   60 4196.37000  931.12775  77.8%     -    0s
H    0     0                    4194.5400000  931.12775  77.8%     -    0s
     0     0  931.12775    0   72 4194.54000  931.12775  77.8%     -    0s
H    0     0                    4188.9300000  931.12775  77.8%     -    0s
     0     0  931.12775    0   74 4188.93000  931.12775  77.8%     -    0s
     0     0  931.12775    0   73 4188.93000  931.12775  77.8%     -    0s
     0     0  931.12775    0   79 4188.93000  931.12775  77.8%     -    0s
     0     0  931.12775    0   79 4188.93000  931.12775  77.8%     -    0s
H    0     0                    3211.6300000  931.12775  71.0%     -    0s
H    0     0                    3169.4000000  931.12775  70.6%     -    0s
     0     2  931.12775    0   75 3169.40000  931.12775  70.6%     -    0s
H   39    39                    3163.6900000 1123.05400  64.5%  35.6    0s
H  655   306                    3163.6300000 1154.80616  63.5%  33.1    0s
  2960   461 infeasible   30      3163.63000 1691.18456  46.5%  45.2    5s
  5359   443 infeasible   30      3163.63000 2174.15981  31.3%  53.0   10s

Cutting planes:
  Learned: 1
  Gomory: 9
  Cover: 16
  Implied bound: 152
  Clique: 6
  MIR: 36
  Flow cover: 51
  GUB cover: 9
  Zero half: 20

Explored 7540 nodes (444023 simplex iterations) in 14.52 seconds
Thread count was 2 (of 4 available processors)

Optimal solution found (tolerance 1.00e-04)
Best objective 3.163630000000e+03, best bound 3.163630000000e+03, gap 0.0%
k_c1	4.0
k_c2	9.0
k_c3	10.0
k_c4	8.0
k_c5	3.0
k_c6	7.0
k_c7	10.0
k_dN	0.0
kDash_c1	-0.0
kDash_c2	3.0
kDash_c3	7.0
kDash_c4	4.0
kDash_c5	0.0
kDash_c6	4.0
kDash_c7	8.0
o_1	0.0
o_2	-0.0
o_3	0.0
o_4	0.0
o_5	0.0
o_6	0.0
o_7	0.0
p_1	-0.0
p_2	0.0
p_3	-0.0
p_4	0.0
p_5	0.0
p_6	0.0
p_7	0.0
phi_c1	9.0
phi_c2	10.0
phi_c3	11.0
phi_c4	14.0
phi_c5	9.0
phi_c6	10.0
phi_c7	15.0
phi_d0	16.0
phi_dN	-0.0
pi_c1	7.0
pi_c2	10.0
pi_c3	0.0
pi_c4	10.0
pi_c5	7.0
pi_c6	10.0
pi_c7	0.0
pi_dN	0.0
tauD_c1	90.0
tauD_c2	60.0
tauD_c3	33.0
tauD_c4	25.0
tauD_c5	85.0
tauD_c6	40.0
tauD_c7	10.0
tauD_d0	-0.0
tauD_dN	100.0
tauS_c1	84.0
tauS_c2	87.0
tauS_c3	87.0
tauS_c4	66.0
tauS_c5	88.0
tauS_c6	86.0
tauS_c7	88.0
tauS_d0	-0.0
tauS_dN	100.0
x_c1_dN	1.0
x_c2_c5	1.0
x_c3_c6	1.0
x_c4_dN	1.0
x_c5_dN	1.0
x_c6_c1	1.0
x_c7_c4	1.0
x_d0_c2	1.0
x_d0_c3	1.0
x_d0_c7	1.0
